&CONTROL
  calculation = 'scf'
  etot_conv_thr =   8.4000000000d-04
  forc_conv_thr =   1.0000000000d-04
  outdir = './out/'
  pseudo_dir = './pseudo'
  prefix = 'm2m'
  tprnfor = .true.
  tstress = .true.
  verbosity = 'high'
  nstep = 999
  max_seconds = 40000
  restart_mode = 'restart'
/
&SYSTEM
  degauss =   2.2049585400d-02
  ecutrho =   4.8000000000d+02
  a = 21.467011377813442
  b = 21.467011377813442
  c = 7.052558827525321
  ecutwfc = 85
  ibrav = 4
  nat = 192
  ntyp = 5
  occupations = 'smearing'
  smearing = 'cold'
  vdw_corr = 'grimme-d2'
/
&ELECTRONS
  conv_thr =   1.6800000000d-08
  electron_maxstep = 80
  mixing_beta =   4.0000000000d-01
/
ATOMIC_SPECIES
C      12.0107 C.pbesol-n-kjpaw_psl.1.0.0.UPF
H      1.00794 H.pbesol-rrkjus_psl.1.0.0.UPF
Zn     65.38 zn_pbesol_v1.uspp.F.UPF
N      14.0067 N.pbesol-theos.UPF
O      15.9994 O.pbesol-n-kjpaw_psl.0.1.UPF
ATOMIC_POSITIONS crystal
C             0.3980627920        0.5602029814        0.5014314359
H             0.5824780811        0.9974380482        0.5026396496
C             0.5620254499        0.0318571023        0.2324664263
C             0.5877035886        0.0431107966        0.4201482828
H             0.5530247065        0.0860264364        0.9848348917
C             0.5720515173        0.0918270142        0.1313475527
C             0.6198004415        0.1108364084        0.5007989281
H             0.5114517692        0.1005814798        0.6006556111
H             0.6397162284        0.1200028030        0.6469114370
H             0.4217165915        0.0809926047        0.5506255498
H             0.7272075885        0.2207965444        0.0356254472
H             0.8144438958        0.2297867824        0.0567254597
C             0.4721158370        0.1181523626        0.6257502591
C             0.6036204022        0.1611868747        0.2090462424
H             0.8051741663        0.3047254870       -0.0190490566
C             0.6271794665        0.1716665796        0.4021795281
C             0.7833420501        0.2578033978        0.0761243348
H             0.4618521204        0.1154524046        0.7790369839
H             0.4107401203        0.1448387442        0.0061572605
H             0.3777755253        0.1339305703        0.3365864558
O             0.5882408785        0.2021330209        0.9109085834
H             0.8332300819        0.1336664891        0.5624192224
H             0.8810550822        0.2312531482        0.3274496416
C             0.6098377404        0.2192776503        0.0804042417
H             0.5172035740        0.1958337541        0.4204012222
N             0.5013372820        0.1926927529        0.5610333279
O             0.6553181730        0.2337206160        0.4944998150
H             0.4042970336        0.1827811087        0.6649422557
H             0.7617317475        0.2376557928        0.3596766849
N             0.7869031249        0.2822736486        0.2718426571
C             0.4355684408        0.2036704090        0.0229607581
C             0.4078079730        0.1929425518        0.3584835817
H             0.4807890244        0.2302582470        0.9231360451
H             0.8981199835        0.3519530833        0.2250421293
N             0.4626059564        0.2234448189        0.2135423500
C             0.4437470589        0.2113080980        0.5517434556
C             0.8822464374        0.2699873686        0.4332473909
C             0.8398935248        0.1742979984        0.6686460012
Zn            0.6034557293        0.2670246779        0.6865619349
O             0.6373744936        0.2832233961        0.1443402686
jonowens@perlmutter:login19:~/alcc23_storage/literature_amines/m2m/c/6/phonon> tail -f ph.out

     Representation   573      1 modes -  To be done

     Representation   574      1 modes -  To be done

     Representation   575      1 modes -  To be done

     Representation   576      1 modes -  To be done


^C
jonowens@perlmutter:login19:~/alcc23_storage/literature_amines/m2m/c/6/phonon> cat pw.in
&CONTROL
  calculation = 'scf'
  etot_conv_thr =   8.4000000000d-04
  forc_conv_thr =   1.0000000000d-04
  outdir = './out/'
  pseudo_dir = './pseudo'
  prefix = 'm2m'
  tprnfor = .true.
  tstress = .true.
  verbosity = 'high'
  nstep = 999
  max_seconds = 40000
  restart_mode = 'restart'
/
&SYSTEM
  degauss =   2.2049585400d-02
  ecutrho =   4.8000000000d+02
  a = 21.467011377813442
  b = 21.467011377813442
  c = 7.052558827525321
  ecutwfc = 85
  ibrav = 4
  nat = 192
  ntyp = 5
  occupations = 'smearing'
  smearing = 'cold'
  vdw_corr = 'grimme-d2'
/
&ELECTRONS
  conv_thr =   1.6800000000d-08
  electron_maxstep = 80
  mixing_beta =   4.0000000000d-01
/
ATOMIC_SPECIES
C      12.0107 C.pbesol-n-kjpaw_psl.1.0.0.UPF
H      1.00794 H.pbesol-rrkjus_psl.1.0.0.UPF
Zn     65.38 zn_pbesol_v1.uspp.F.UPF
N      14.0067 N.pbesol-theos.UPF
O      15.9994 O.pbesol-n-kjpaw_psl.0.1.UPF
ATOMIC_POSITIONS crystal
C             0.3980627920        0.5602029814        0.5014314359
H             0.5824780811        0.9974380482        0.5026396496
C             0.5620254499        0.0318571023        0.2324664263
C             0.5877035886        0.0431107966        0.4201482828
H             0.5530247065        0.0860264364        0.9848348917
C             0.5720515173        0.0918270142        0.1313475527
C             0.6198004415        0.1108364084        0.5007989281
H             0.5114517692        0.1005814798        0.6006556111
H             0.6397162284        0.1200028030        0.6469114370
H             0.4217165915        0.0809926047        0.5506255498
H             0.7272075885        0.2207965444        0.0356254472
H             0.8144438958        0.2297867824        0.0567254597
C             0.4721158370        0.1181523626        0.6257502591
C             0.6036204022        0.1611868747        0.2090462424
H             0.8051741663        0.3047254870       -0.0190490566
C             0.6271794665        0.1716665796        0.4021795281
C             0.7833420501        0.2578033978        0.0761243348
H             0.4618521204        0.1154524046        0.7790369839
H             0.4107401203        0.1448387442        0.0061572605
H             0.3777755253        0.1339305703        0.3365864558
O             0.5882408785        0.2021330209        0.9109085834
H             0.8332300819        0.1336664891        0.5624192224
H             0.8810550822        0.2312531482        0.3274496416
C             0.6098377404        0.2192776503        0.0804042417
H             0.5172035740        0.1958337541        0.4204012222
N             0.5013372820        0.1926927529        0.5610333279
O             0.6553181730        0.2337206160        0.4944998150
H             0.4042970336        0.1827811087        0.6649422557
H             0.7617317475        0.2376557928        0.3596766849
N             0.7869031249        0.2822736486        0.2718426571
C             0.4355684408        0.2036704090        0.0229607581
C             0.4078079730        0.1929425518        0.3584835817
H             0.4807890244        0.2302582470        0.9231360451
H             0.8981199835        0.3519530833        0.2250421293
N             0.4626059564        0.2234448189        0.2135423500
C             0.4437470589        0.2113080980        0.5517434556
C             0.8822464374        0.2699873686        0.4332473909
C             0.8398935248        0.1742979984        0.6686460012
Zn            0.6034557293        0.2670246779        0.6865619349
O             0.6373744936        0.2832233961        0.1443402686
H             0.7985681170        0.1466323396        0.7784848369
C             0.8617160827        0.3214096090        0.3424120749
N             0.8298018338        0.2291071318        0.5785898023
H             0.3942982633        0.2184667134        0.9842597507
H             0.3674812656        0.2111183468        0.3515034527
H             0.8937375906        0.1950718930        0.7352006462
H             0.9386323235        0.3008995390        0.4865441373
H             0.4936132556        0.2782833550        0.2259419759
H             0.4666979441        0.2692111892        0.5778601455
Zn            0.7202699597        0.3277977174        0.3503820800
O             0.7086950544        0.3457643996        0.8091713653
H             0.8278553147        0.2631617357        0.6770960433
H             0.8656948890        0.3607589504        0.4492678661
O             0.5790308687        0.3371208950        0.8244396257
H             0.2218873957        0.3654823167        0.6884207167
H             0.1439112481        0.3744684481        0.7036337038
H             0.1922203894        0.4005008202        0.3744862115
O             0.6435684020        0.3519932018        0.4780817871
O             0.7874866603        0.3849074965        0.5680077552
C             0.7717966056        0.3837302015        0.7426136051
Zn            0.6643007291        0.3865680978        0.0184110814
C             0.5483806106        0.3694358816        0.7362182260
H             0.4886729734        0.3629989602        0.9861879397
C             0.6091372680        0.3812712738        0.4128461241
C             0.2028738136        0.4051401250        0.6807738050
C             0.4982999929        0.3810642451        0.8383285425
O             0.7588723704        0.4098395279        0.1546782092
H             0.1251800674        0.4565493753        0.2531334823
H             0.0893222496        0.4147825284        0.4789412793
C             0.5605485574        0.3919442912        0.5424407804
O             0.6128964835        0.4012012522        0.2414149302
C             0.2203751624        0.4404889377        0.4868347262
H             0.2299561910        0.3935914231        0.0553861754
C             0.8320306573        0.4289808991        0.8738374525
H             0.4255743923        0.4222749113        0.2052140577
H             0.1551031013        0.4079955227        0.0327006223
C             0.4630729946        0.4135508102        0.7575616123
C             0.8223174983        0.4364048043        0.0711888981
H             0.2783013958        0.4642232449        0.4603095569
C             0.5236347823        0.4243457405        0.4648122329
H             0.4244495810        0.4210659276        0.8420256121
C             0.1260957401        0.4660399008        0.4064594859
H             0.8055842071        0.5211921833        0.9192258295
H             0.9064880240        0.4583712845        0.6451858993
C             0.4753258374        0.4364417477        0.5673753309
H             0.5357467293        0.4418106841        0.3168653649
C             0.2140181075        0.4339216781        0.0156441109
H             0.7877985774        0.4946710217        0.5648805916
C             0.9015599691        0.4655386388        0.7970685983
C             0.4185388323        0.4614191867        0.2886042166
N             0.2330891267        0.4604832642        0.8244681263
N             0.2001598807        0.4969781990        0.4764250326
H             0.1064491841        0.5037705973        0.4302658455
C             0.8850167372        0.4776354593        0.1805892436
N             0.6954439163        0.4908604161        0.8996118477
H             0.6824250973        0.4765069840        0.7581452054
H             0.3703511116        0.4885809620        0.0573965142
C             0.4402666887        0.4730108311        0.4797648027
H             0.8770983577        0.4819773506        0.3324515250
C             0.3877513755        0.4978496416        0.2058007837
H             0.2878452018        0.4919847511        0.8109858028
C             0.7725946907        0.5462071115        0.8916905987
H             0.2015003614        0.5119098024        0.6172884835
C             0.9628500245        0.5080985260        0.9044376508
H             0.2399775931        0.4794873820        0.1147713265
N             0.7656298828        0.5272084234        0.5533103305
C             0.9528422808        0.5123597609        0.1005179249
H             0.7537731048        0.5090467292        0.2628192328
H             0.7847328626        0.5860932174        0.0044971311
C             0.4289169465        0.5220669356        0.5811129333
H             0.6605897365        0.5312412663        0.1223695598
C             0.6530244312        0.5227808227        0.9685066355
C             0.0343878498        0.5460685219        0.8160748524
H             0.0917518248        0.5405841094        0.0616451667
C             0.7918693380        0.5820981575        0.6983036102
H             0.4456375546        0.5337083638        0.7296772760
H             0.5956343164        0.4860319368        0.9416440549
H             0.8508950639        0.6204070839        0.6919646063
C             0.3764689845        0.5483180966        0.3070024380
H             0.9996200034        0.5451615784        0.1907372025
H             0.9977707327        0.5649954480        0.5469864866
C             0.7739302285        0.5544395331        0.3626217765
C             0.0957499721        0.5586731167        0.9147063603
H             0.8305612075        0.5939665173        0.3237439994
C             0.0442149686        0.5714520396        0.6280478789
O             0.3447096886        0.5792123854        0.2175825110
O             0.2092592613        0.5877485756        0.1367582622
H             0.6690877841        0.5746467708        0.8975710028
C             0.1649034859        0.5934524196        0.8354623118
C             0.1115412714        0.6054031163        0.5449523155
H             0.7652521487        0.6143891869        0.6760075048
H             0.4908067014        0.5934957283        0.0952720614
H             0.7419304897        0.5814232484        0.3454168940
C             0.2252244891        0.6066389391        0.9645438196
H             0.1190037313        0.6251989296        0.3988153312
C             0.1741102671        0.6170343253        0.6427507297
C             0.3872171093        0.6089447929        0.6305016333
O             0.4069824702        0.6123593415        0.8018339485
Zn            0.2747729196        0.6023803896        0.3579987850
O             0.2890014075        0.6371004299        0.8996479640
O             0.2366111969        0.6506455913        0.5525185886
H             0.5372726834        0.6584981323        0.9156834118
O             0.3579158074        0.6435211899        0.5658360091
C             0.5286980198        0.6506912846        0.0694529054
H             0.1903230502        0.7148103560        0.8001245876
Zn            0.3937219811        0.6648288633        0.0236773255
H             0.2097233048        0.7076489826        0.1506033004
H             0.5802455434        0.6651766650        0.1401048025
H             0.4840624959        0.6815230493        0.2810897209
H             0.1470609484        0.7712757758        1.0253677831
N             0.4986251068        0.6945572441        0.1397917197
H             0.1677578571        0.7656488340        0.3911696804
Zn            0.3310184751        0.7210324095        0.6898703890
O             0.3524754772        0.7074322848        0.2332136770
C             0.2237099035        0.7730189885        0.8240111828
N             0.2320704569        0.7623772173        0.1620675257
H             0.2439821489        0.7565529338        0.4526549614
C             0.2058927068        0.7911113178        1.0171640391
H             0.2107770102        0.7998563423        0.7104160931
C             0.2242144554        0.7819645872        0.3523122564
N             0.3006608093        0.7944024960        0.8124478197
H             0.3145027368        0.7927332381        0.9528813131
H             0.5155451627        0.7530420912        0.7761031889
H             0.5862177863        0.7381472762        0.6953530389
O             0.4167132139        0.7578307188        0.8851268594
N             0.5351194118        0.7648617428        0.4858704387
C             0.3874873426        0.7711937961        0.2982020390
C             0.5556465571        0.7711086295        0.1484932665
H             0.6208268251        0.7605099784        0.3673389326
C             0.5612147919        0.7719458367        0.6775143985
H             0.5044703203        0.7890146475        0.4716380881
H             0.5956940226        0.7820595479        0.0369218494
H             0.2334034835        0.8501491955        0.0378424627
O             0.3837909246        0.7875183770        0.4696222923
H             0.2567442588        0.8409570873        0.3682329242
C             0.5906831361        0.7892406376        0.3428721207
H             0.5325148922        0.8056865312        0.1197180317
C             0.3431280810        0.8688714979        0.7444849329
C             0.4479705743        0.8206012148        0.9743588803
C             0.4368562276        0.8306126543        0.1693021171
H             0.6021333598        0.8279894391        0.7173740718
H             0.3273228570        0.9046386571        0.8167297157
H             0.6307138183        0.8478144918        0.3498476677
H             0.4005241893        0.8893386630        0.7706674492
H             0.3354262938        0.8701723147        0.5908446273
H             0.5061388692        0.8738944219        0.7226944121
C             0.4978797155        0.8822058243        0.8717661340
C             0.4758400814        0.8997146604        0.2484330804
H             0.4649353411        0.9051413711        0.3974294970
C             0.5348822674        0.9495361580        0.9538287233
C             0.5246474074        0.9599613668        0.1458357850
H             0.5733547360        0.9956231537        0.8689984509
K_POINTS automatic
1 1 2 0 0 0
jonowens@perlmutter:login19:~/alcc23_storage/literature_amines/m2m/c/6/phonon> tail -f ph.out

     Representation   573      1 modes -  To be done

     Representation   574      1 modes -  To be done

     Representation   575      1 modes -  To be done

     Representation   576      1 modes -  To be done


^C
jonowens@perlmutter:login19:~/alcc23_storage/literature_amines/m2m/c/6/phonon> ls
16n_phonon.sh  dynmat.in  m2m.dyn  out	ph.in  ph.out  pseudo  pw.in  pw.out  slurm-14665239.out
jonowens@perlmutter:login19:~/alcc23_storage/literature_amines/m2m/c/6/phonon> tail -f ph.out

     Representation   573      1 modes -  To be done

     Representation   574      1 modes -  To be done

     Representation   575      1 modes -  To be done

     Representation   576      1 modes -  To be done


^C
jonowens@perlmutter:login19:~/alcc23_storage/literature_amines/m2m/c/6/phonon> ls
16n_phonon.sh  dynmat.in  m2m.dyn  out	ph.in  ph.out  pseudo  pw.in  pw.out  slurm-14665239.out
jonowens@perlmutter:login19:~/alcc23_storage/literature_amines/m2m/c/6/phonon> cat pw.in
&CONTROL
  calculation = 'scf'
  etot_conv_thr =   8.4000000000d-04
  forc_conv_thr =   1.0000000000d-04
  outdir = './out/'
  pseudo_dir = './pseudo'
  prefix = 'm2m'
  tprnfor = .true.
  tstress = .true.
  verbosity = 'high'
  nstep = 999
  max_seconds = 40000
  restart_mode = 'restart'
/
&SYSTEM
  degauss =   2.2049585400d-02
  ecutrho =   4.8000000000d+02
  a = 21.467011377813442
  b = 21.467011377813442
  c = 7.052558827525321
  ecutwfc = 85
  ibrav = 4
  nat = 192
  ntyp = 5
  occupations = 'smearing'
  smearing = 'cold'
  vdw_corr = 'grimme-d2'
/
&ELECTRONS
  conv_thr =   1.6800000000d-08
  electron_maxstep = 80
  mixing_beta =   4.0000000000d-01
/
ATOMIC_SPECIES
C      12.0107 C.pbesol-n-kjpaw_psl.1.0.0.UPF
H      1.00794 H.pbesol-rrkjus_psl.1.0.0.UPF
Zn     65.38 zn_pbesol_v1.uspp.F.UPF
N      14.0067 N.pbesol-theos.UPF
O      15.9994 O.pbesol-n-kjpaw_psl.0.1.UPF
ATOMIC_POSITIONS crystal
C             0.3980627920        0.5602029814        0.5014314359
H             0.5824780811        0.9974380482        0.5026396496
C             0.5620254499        0.0318571023        0.2324664263
C             0.5877035886        0.0431107966        0.4201482828
H             0.5530247065        0.0860264364        0.9848348917
C             0.5720515173        0.0918270142        0.1313475527
C             0.6198004415        0.1108364084        0.5007989281
H             0.5114517692        0.1005814798        0.6006556111
H             0.6397162284        0.1200028030        0.6469114370
H             0.4217165915        0.0809926047        0.5506255498
H             0.7272075885        0.2207965444        0.0356254472
H             0.8144438958        0.2297867824        0.0567254597
C             0.4721158370        0.1181523626        0.6257502591
C             0.6036204022        0.1611868747        0.2090462424
H             0.8051741663        0.3047254870       -0.0190490566
C             0.6271794665        0.1716665796        0.4021795281
C             0.7833420501        0.2578033978        0.0761243348
H             0.4618521204        0.1154524046        0.7790369839
H             0.4107401203        0.1448387442        0.0061572605
H             0.3777755253        0.1339305703        0.3365864558
O             0.5882408785        0.2021330209        0.9109085834
H             0.8332300819        0.1336664891        0.5624192224
H             0.8810550822        0.2312531482        0.3274496416
C             0.6098377404        0.2192776503        0.0804042417
H             0.5172035740        0.1958337541        0.4204012222
N             0.5013372820        0.1926927529        0.5610333279
O             0.6553181730        0.2337206160        0.4944998150
H             0.4042970336        0.1827811087        0.6649422557
H             0.7617317475        0.2376557928        0.3596766849
N             0.7869031249        0.2822736486        0.2718426571
C             0.4355684408        0.2036704090        0.0229607581
C             0.4078079730        0.1929425518        0.3584835817
H             0.4807890244        0.2302582470        0.9231360451
H             0.8981199835        0.3519530833        0.2250421293
N             0.4626059564        0.2234448189        0.2135423500
C             0.4437470589        0.2113080980        0.5517434556
C             0.8822464374        0.2699873686        0.4332473909
C             0.8398935248        0.1742979984        0.6686460012
Zn            0.6034557293        0.2670246779        0.6865619349
O             0.6373744936        0.2832233961        0.1443402686
H             0.7985681170        0.1466323396        0.7784848369
C             0.8617160827        0.3214096090        0.3424120749
N             0.8298018338        0.2291071318        0.5785898023
H             0.3942982633        0.2184667134        0.9842597507
H             0.3674812656        0.2111183468        0.3515034527
H             0.8937375906        0.1950718930        0.7352006462
H             0.9386323235        0.3008995390        0.4865441373
H             0.4936132556        0.2782833550        0.2259419759
H             0.4666979441        0.2692111892        0.5778601455
Zn            0.7202699597        0.3277977174        0.3503820800
O             0.7086950544        0.3457643996        0.8091713653
H             0.8278553147        0.2631617357        0.6770960433
H             0.8656948890        0.3607589504        0.4492678661
O             0.5790308687        0.3371208950        0.8244396257
H             0.2218873957        0.3654823167        0.6884207167
H             0.1439112481        0.3744684481        0.7036337038
H             0.1922203894        0.4005008202        0.3744862115
O             0.6435684020        0.3519932018        0.4780817871
O             0.7874866603        0.3849074965        0.5680077552
C             0.7717966056        0.3837302015        0.7426136051
Zn            0.6643007291        0.3865680978        0.0184110814
C             0.5483806106        0.3694358816        0.7362182260
H             0.4886729734        0.3629989602        0.9861879397
C             0.6091372680        0.3812712738        0.4128461241
C             0.2028738136        0.4051401250        0.6807738050
C             0.4982999929        0.3810642451        0.8383285425
O             0.7588723704        0.4098395279        0.1546782092
H             0.1251800674        0.4565493753        0.2531334823
H             0.0893222496        0.4147825284        0.4789412793
C             0.5605485574        0.3919442912        0.5424407804
O             0.6128964835        0.4012012522        0.2414149302
C             0.2203751624        0.4404889377        0.4868347262
H             0.2299561910        0.3935914231        0.0553861754
C             0.8320306573        0.4289808991        0.8738374525
H             0.4255743923        0.4222749113        0.2052140577
H             0.1551031013        0.4079955227        0.0327006223
C             0.4630729946        0.4135508102        0.7575616123
C             0.8223174983        0.4364048043        0.0711888981
H             0.2783013958        0.4642232449        0.4603095569
C             0.5236347823        0.4243457405        0.4648122329
H             0.4244495810        0.4210659276        0.8420256121
C             0.1260957401        0.4660399008        0.4064594859
H             0.8055842071        0.5211921833        0.9192258295
H             0.9064880240        0.4583712845        0.6451858993
C             0.4753258374        0.4364417477        0.5673753309
H             0.5357467293        0.4418106841        0.3168653649
C             0.2140181075        0.4339216781        0.0156441109
H             0.7877985774        0.4946710217        0.5648805916
C             0.9015599691        0.4655386388        0.7970685983
C             0.4185388323        0.4614191867        0.2886042166
N             0.2330891267        0.4604832642        0.8244681263
N             0.2001598807        0.4969781990        0.4764250326
H             0.1064491841        0.5037705973        0.4302658455
C             0.8850167372        0.4776354593        0.1805892436
N             0.6954439163        0.4908604161        0.8996118477
H             0.6824250973        0.4765069840        0.7581452054
H             0.3703511116        0.4885809620        0.0573965142
C             0.4402666887        0.4730108311        0.4797648027
H             0.8770983577        0.4819773506        0.3324515250
C             0.3877513755        0.4978496416        0.2058007837
H             0.2878452018        0.4919847511        0.8109858028
C             0.7725946907        0.5462071115        0.8916905987
H             0.2015003614        0.5119098024        0.6172884835
C             0.9628500245        0.5080985260        0.9044376508
H             0.2399775931        0.4794873820        0.1147713265
N             0.7656298828        0.5272084234        0.5533103305
C             0.9528422808        0.5123597609        0.1005179249
H             0.7537731048        0.5090467292        0.2628192328
H             0.7847328626        0.5860932174        0.0044971311
C             0.4289169465        0.5220669356        0.5811129333
H             0.6605897365        0.5312412663        0.1223695598
C             0.6530244312        0.5227808227        0.9685066355
C             0.0343878498        0.5460685219        0.8160748524
H             0.0917518248        0.5405841094        0.0616451667
C             0.7918693380        0.5820981575        0.6983036102
H             0.4456375546        0.5337083638        0.7296772760
H             0.5956343164        0.4860319368        0.9416440549
H             0.8508950639        0.6204070839        0.6919646063
C             0.3764689845        0.5483180966        0.3070024380
H             0.9996200034        0.5451615784        0.1907372025
H             0.9977707327        0.5649954480        0.5469864866
C             0.7739302285        0.5544395331        0.3626217765
C             0.0957499721        0.5586731167        0.9147063603
H             0.8305612075        0.5939665173        0.3237439994
C             0.0442149686        0.5714520396        0.6280478789
O             0.3447096886        0.5792123854        0.2175825110
O             0.2092592613        0.5877485756        0.1367582622
H             0.6690877841        0.5746467708        0.8975710028
C             0.1649034859        0.5934524196        0.8354623118
C             0.1115412714        0.6054031163        0.5449523155
H             0.7652521487        0.6143891869        0.6760075048
H             0.4908067014        0.5934957283        0.0952720614
H             0.7419304897        0.5814232484        0.3454168940
C             0.2252244891        0.6066389391        0.9645438196
H             0.1190037313        0.6251989296        0.3988153312
C             0.1741102671        0.6170343253        0.6427507297
C             0.3872171093        0.6089447929        0.6305016333
O             0.4069824702        0.6123593415        0.8018339485
Zn            0.2747729196        0.6023803896        0.3579987850
O             0.2890014075        0.6371004299        0.8996479640
O             0.2366111969        0.6506455913        0.5525185886
H             0.5372726834        0.6584981323        0.9156834118
O             0.3579158074        0.6435211899        0.5658360091
C             0.5286980198        0.6506912846        0.0694529054
H             0.1903230502        0.7148103560        0.8001245876
Zn            0.3937219811        0.6648288633        0.0236773255
H             0.2097233048        0.7076489826        0.1506033004
H             0.5802455434        0.6651766650        0.1401048025
H             0.4840624959        0.6815230493        0.2810897209
H             0.1470609484        0.7712757758        1.0253677831
N             0.4986251068        0.6945572441        0.1397917197
H             0.1677578571        0.7656488340        0.3911696804